
Gurobi 10.0.1 (win64) logging started Sun Aug 27 19:51:37 2023

Set parameter LogFile to value "results//log/Fattahi_setup_03_modified_old_deadline.log"
Gurobi Optimizer version 10.0.1 build v10.0.1rc0 (win64)

CPU model: AMD Ryzen 7 3700X 8-Core Processor, instruction set [SSE2|AVX|AVX2]
Thread count: 8 physical cores, 16 logical processors, using up to 16 threads

Optimize a model with 92 rows, 62 columns and 335 nonzeros
Model fingerprint: 0x158e00a3
Model has 1 quadratic constraint
Variable types: 10 continuous, 52 integer (51 binary)
Coefficient statistics:
  Matrix range     [1e+00, 1e+06]
  QMatrix range    [1e+00, 1e+00]
  QLMatrix range   [1e+00, 4e+02]
  Objective range  [1e+00, 1e+00]
  Bounds range     [1e+00, 1e+00]
  RHS range        [1e+00, 3e+06]
Presolve removed 23 rows and 28 columns
Presolve time: 0.00s
Presolved: 75 rows, 38 columns, 295 nonzeros
Variable types: 14 continuous, 24 integer (23 binary)
Found heuristic solution: objective 2090.0000000
Found heuristic solution: objective 1718.0000000

Root relaxation: objective 0.000000e+00, 18 iterations, 0.00 seconds (0.00 work units)

    Nodes    |    Current Node    |     Objective Bounds      |     Work
 Expl Unexpl |  Obj  Depth IntInf | Incumbent    BestBd   Gap | It/Node Time

     0     0    0.00000    0    8 1718.00000    0.00000   100%     -    0s
     0     0    0.00000    0    8 1718.00000    0.00000   100%     -    0s
H    0     0                    1402.0000000    0.00000   100%     -    0s
     0     0    0.00000    0    9 1402.00000    0.00000   100%     -    0s
H    0     0                    1180.0000000    0.00000   100%     -    0s
     0     0  460.00000    0    9 1180.00000  460.00000  61.0%     -    0s
     0     0  564.00000    0    9 1180.00000  564.00000  52.2%     -    0s
     0     0  764.00000    0   11 1180.00000  764.00000  35.3%     -    0s
     0     0  782.00000    0   15 1180.00000  782.00000  33.7%     -    0s
     0     0  891.00000    0    8 1180.00000  891.00000  24.5%     -    0s
     0     0  895.00000    0    7 1180.00000  895.00000  24.2%     -    0s
     0     0  904.00000    0    5 1180.00000  904.00000  23.4%     -    0s
     0     0 1017.00000    0    9 1180.00000 1017.00000  13.8%     -    0s
     0     0 1042.65072    0    9 1180.00000 1042.65072  11.6%     -    0s
     0     2 1042.65072    0    9 1180.00000 1042.65072  11.6%     -    0s

Cutting planes:
  Learned: 3
  Cover: 3
  Implied bound: 3
  MIR: 2
  Flow cover: 9
  RLT: 3
  Relax-and-lift: 1

Explored 35 nodes (323 simplex iterations) in 0.04 seconds (0.01 work units)
Thread count was 16 (of 16 available processors)

Solution count 4: 1180 1402 1718 2090 

Optimal solution found (tolerance 1.00e-04)
Best objective 1.180000000000e+03, best bound 1.180000000000e+03, gap 0.0000%
Warning: constraint name "precedence between 0,1 to 0,0 if x_[j,l,h,z,i]=1" has a space
Warning: constraint name "precedence between 0,1 to 0,0 if x_[j,l,h,z,i]=1" has a space
Warning: default constraint names used to write mps file
